(declare-fun temp2623_1 () (_ BitVec 64))
(declare-fun var81157 () (_ BitVec 64))
(declare-fun ARGNAME_n_fft_NAMEEND () (_ BitVec 64))
(declare-fun temp2623_2 () (_ BitVec 64))
(declare-fun var1050945 () (_ BitVec 64))
(declare-fun temp2623_3 () (_ BitVec 64))
(declare-fun var67312 () (_ BitVec 64))
(declare-fun temp2623_4 () (_ BitVec 64))
(declare-fun var81838 () (_ BitVec 64))
(declare-fun temp2623_5 () (_ BitVec 64))
(declare-fun var81839 () (_ BitVec 64))
(declare-fun temp2623_6 () (_ BitVec 64))
(declare-fun var82185 () (_ BitVec 64))
(declare-fun ARGNAME_hop_length_NAMEEND () (_ BitVec 64))
(declare-fun var82186 () (_ BitVec 64))
(declare-fun null () (_ BitVec 64))
(declare-fun temp2623_7 () (_ BitVec 64))
(declare-fun var82187 () (_ BitVec 64))
(declare-fun k!0 () Bool)
(declare-fun var82356 () (_ BitVec 64))
(declare-fun temp2623_8 () (_ BitVec 64))
(declare-fun temp2623_9 () (_ BitVec 64))
(declare-fun ARGNAME_window_NAMEEND_DIM () (_ BitVec 64))
(declare-fun var82528 () (_ BitVec 64))
(declare-fun temp2623_10 () (_ BitVec 64))
(declare-fun temp2623_11 () (_ BitVec 64))
(declare-fun var65913 () (_ BitVec 64))
(declare-fun temp2623_12 () (_ BitVec 64))
(declare-fun temp2623_13 () (_ BitVec 64))
(declare-fun ARGNAME_window_NAMEEND_DIMSIZE
             ()
             (Array (_ BitVec 64) (_ BitVec 64)))
(declare-fun temp2623_14 () (_ BitVec 64))
(declare-fun temp2623_15 () (_ BitVec 64))
(declare-fun temp2623_16 () (_ BitVec 64))
(declare-fun temp2623_17 () (_ BitVec 64))
(declare-fun temp2623_18 () (_ BitVec 64))
(declare-fun temp2623_19 () (_ BitVec 64))
(declare-fun temp2623_20 () (_ BitVec 64))
(declare-fun temp2623_21 () (_ BitVec 64))
(declare-fun temp2623_22 () (_ BitVec 64))
(declare-fun temp2623_23 () (_ BitVec 64))
(declare-fun temp2623_24 () (_ BitVec 64))
(declare-fun temp2623_25 () (_ BitVec 64))
(declare-fun temp2623_26 () (_ BitVec 64))
(declare-fun temp2623_27 () (_ BitVec 64))
(declare-fun temp2623_28 () (_ BitVec 64))
(declare-fun temp2623_29 () (_ BitVec 64))
(declare-fun temp2623_31 () (_ BitVec 64))
(declare-fun temp2623_30 () (_ BitVec 64))
(declare-fun temp2623_32 () (_ BitVec 64))
(declare-fun temp2623_33 () (_ BitVec 64))
(declare-fun var82530 () (_ BitVec 64))
(declare-fun var82531 () (_ BitVec 64))
(declare-fun temp2623_34 () (_ BitVec 64))
(declare-fun var82728 () (_ BitVec 64))
(declare-fun temp2623_35 () (_ BitVec 64))
(declare-fun var1914351 () (_ BitVec 64))
(declare-fun temp2623_36 () (_ BitVec 64))
(declare-fun var2115797 () (_ BitVec 64))
(declare-fun temp2623_37 () (_ BitVec 64))
(declare-fun var2115798 () (_ BitVec 64))
(declare-fun temp2623_39 () (_ BitVec 64))
(declare-fun temp2623_38 () (_ BitVec 64))
(declare-fun temp2623_40 () (_ BitVec 64))
(declare-fun var2628020 () (_ BitVec 64))
(declare-fun temp2623_41 () (_ BitVec 64))
(declare-fun temp2623_42 () (_ BitVec 64))
(declare-fun ARGNAME_normalized_NAMEEND () (_ BitVec 64))
(declare-fun var82862 () (_ BitVec 64))
(declare-fun temp2623_43 () (_ BitVec 64))
(declare-fun ARGNAME_return_complex_NAMEEND () (_ BitVec 64))
(declare-fun var82911 () (_ BitVec 64))
(declare-fun var3740376 () (_ BitVec 64))
(declare-fun temp2623_44 () (_ BitVec 64))
(declare-fun var3740377 () (_ BitVec 64))
(declare-fun temp2623_45 () (_ BitVec 64))
(declare-fun var69143 () (_ BitVec 64))
(declare-fun temp2623_47 () (_ BitVec 64))
(declare-fun temp2623_46 () (_ BitVec 64))
(declare-fun temp2623_49 () (_ BitVec 64))
(declare-fun temp2623_48 () (_ BitVec 64))
(declare-fun temp2623_51 () (_ BitVec 64))
(declare-fun temp2623_50 () (_ BitVec 64))
(declare-fun temp2623_52 () (_ BitVec 64))
(declare-fun var4212949 () (_ BitVec 64))
(declare-fun var4212950 () (_ BitVec 64))
(declare-fun temp2623_54 () (_ BitVec 64))
(declare-fun temp2623_53 () (_ BitVec 64))
(declare-fun temp2623_56 () (_ BitVec 64))
(declare-fun temp2623_55 () (_ BitVec 64))
(declare-fun temp2623_58 () (_ BitVec 64))
(declare-fun temp2623_57 () (_ BitVec 64))
(declare-fun temp2623_60 () (_ BitVec 64))
(declare-fun temp2623_59 () (_ BitVec 64))
(declare-fun temp2623_62 () (_ BitVec 64))
(declare-fun temp2623_61 () (_ BitVec 64))
(declare-fun temp2623_64 () (_ BitVec 64))
(declare-fun temp2623_63 () (_ BitVec 64))
(declare-fun var4868391 () (_ BitVec 64))
(declare-fun temp2623_65 () (_ BitVec 64))
(declare-fun var4983962 () (_ BitVec 64))
(declare-fun temp2623_67 () (_ BitVec 64))
(declare-fun temp2623_66 () (_ BitVec 64))
(declare-fun temp2623_69 () (_ BitVec 64))
(declare-fun temp2623_68 () (_ BitVec 64))
(declare-fun var5453295 () (_ BitVec 64))
(declare-fun temp2623_71 () (_ BitVec 64))
(declare-fun temp2623_70 () (_ BitVec 64))
(declare-fun temp2623_73 () (_ BitVec 64))
(declare-fun temp2623_72 () (_ BitVec 64))
(declare-fun temp2623_75 () (_ BitVec 64))
(declare-fun temp2623_74 () (_ BitVec 64))
(declare-fun temp2623_77 () (_ BitVec 64))
(declare-fun temp2623_76 () (_ BitVec 64))
(declare-fun temp2623_79 () (_ BitVec 64))
(declare-fun temp2623_78 () (_ BitVec 64))
(declare-fun temp2623_81 () (_ BitVec 64))
(declare-fun temp2623_80 () (_ BitVec 64))
(declare-fun var6375719 () (_ BitVec 64))
(declare-fun temp2623_82 () (_ BitVec 64))
(declare-fun ARGNAME_center_NAMEEND () (_ BitVec 64))
(declare-fun var83534 () (_ BitVec 64))
(declare-fun temp2623_83 () (_ BitVec 64))
(declare-fun var83540 () (_ BitVec 64))
(declare-fun temp2623_84 () (_ BitVec 64))
(declare-fun var6506834 () (_ BitVec 64))
(declare-fun temp2623_85 () (_ BitVec 64))
(declare-fun var6753268 () (_ BitVec 64))
(declare-fun temp2623_86 () (_ BitVec 64))
(declare-fun var6753272 () (_ BitVec 64))
(declare-fun var7801844 () (_ BitVec 64))
(declare-fun temp2623_87 () (_ BitVec 64))
(declare-fun var7801848 () (_ BitVec 64))
(declare-fun temp2623_88 () (_ BitVec 64))
(declare-fun var7801898 () (_ BitVec 64))
(declare-fun temp2623_89 () (_ BitVec 64))
(declare-fun temp2623_90 () (_ BitVec 64))
(declare-fun var9128231 () (_ BitVec 64))
(declare-fun var9390375 () (_ BitVec 64))
(declare-fun temp2623_91 () (_ BitVec 64))
(declare-fun var9637018 () (_ BitVec 64))
(assert (= temp2623_1 #x0000000000000002))
(assert (= var81157 (bvashr ARGNAME_n_fft_NAMEEND temp2623_1)))
(assert (= temp2623_2 #x0000000000000000))
(assert (= var1050945 temp2623_2))
(assert (= temp2623_3 #xffffffffffffffff))
(assert (= var67312 temp2623_3))
(assert (= temp2623_4 #x0000000000000002))
(assert (= var81838 (bvsdiv ARGNAME_n_fft_NAMEEND temp2623_4)))
(assert (= temp2623_5 #x0000000000000001))
(assert (= var81839 (bvadd var81838 temp2623_5)))
(assert (= temp2623_6 #x0000000000000001))
(assert (= var82185
   (ite (bvslt ARGNAME_hop_length_NAMEEND temp2623_6)
        #x0000000000000001
        #x0000000000000000)))
(assert (= var82186
   (ite (bvsgt ARGNAME_hop_length_NAMEEND null)
        #x0000000000000001
        #x0000000000000000)))
(assert (= var82187 (bvor var82185 var82186)))
(assert (= temp2623_7 #x0000000000000000))
(assert (= var82187 temp2623_7))
(assert (= var82356
   (ite (bvsgt null ARGNAME_n_fft_NAMEEND)
        #x0000000000000001
        #x0000000000000000)))
(assert (= temp2623_8 #x0000000000000000))
(assert (= var82356 temp2623_8))
(assert (= temp2623_9 #x0000000000000001))
(assert (= var82528
   (ite (= ARGNAME_window_NAMEEND_DIM temp2623_9)
        #x0000000000000001
        #x0000000000000000)))
(assert (= temp2623_10 #x0000000000000001))
(assert (= var82528 temp2623_10))
(assert (= temp2623_11 #x0000000000000000))
(assert (= var65913 temp2623_11))
(assert (= temp2623_12 #x0000000000000000))
(assert (= temp2623_13 temp2623_12))
(assert (= temp2623_14 (select ARGNAME_window_NAMEEND_DIMSIZE temp2623_13)))
(assert (= temp2623_15 #x0000000000000001))
(assert (= temp2623_16 temp2623_15))
(assert (= temp2623_17 (select ARGNAME_window_NAMEEND_DIMSIZE temp2623_16)))
(assert (= temp2623_18 #x0000000000000002))
(assert (= temp2623_19 temp2623_18))
(assert (= temp2623_20 (select ARGNAME_window_NAMEEND_DIMSIZE temp2623_19)))
(assert (= temp2623_21 #x0000000000000003))
(assert (= temp2623_22 temp2623_21))
(assert (= temp2623_23 (select ARGNAME_window_NAMEEND_DIMSIZE temp2623_22)))
(assert (= temp2623_24 #x0000000000000004))
(assert (= temp2623_25 temp2623_24))
(assert (= temp2623_26 (select ARGNAME_window_NAMEEND_DIMSIZE temp2623_25)))
(assert (= temp2623_27 #x0000000000000005))
(assert (= temp2623_28 temp2623_27))
(assert (= temp2623_29 (select ARGNAME_window_NAMEEND_DIMSIZE temp2623_28)))
(assert (= temp2623_31 #x0000000000000000))
(assert (= temp2623_30
   (ite (bvslt var65913 temp2623_31)
        (bvadd ARGNAME_window_NAMEEND_DIM var65913)
        var65913)))
(assert (= temp2623_32 temp2623_30))
(assert (= temp2623_33 (select ARGNAME_window_NAMEEND_DIMSIZE temp2623_32)))
(assert (= var82530 temp2623_33))
(assert (bvslt temp2623_30 ARGNAME_window_NAMEEND_DIM))
(assert (= var82531 (ite (= var82530 null) #x0000000000000001 #x0000000000000000)))
(assert (= temp2623_34 #x0000000000000001))
(assert (= var82531 temp2623_34))
(assert (= var82728
   (ite (= ARGNAME_n_fft_NAMEEND null) #x0000000000000001 #x0000000000000000)))
(assert (= temp2623_35 #x0000000000000001))
(assert (= var82728 temp2623_35))
(assert (= var1914351 var65913))
(assert (= temp2623_36 #x0000000000000001))
(assert (= var2115797 temp2623_36))
(assert (= temp2623_37 #x0000000000000002))
(assert (= var2115798 temp2623_37))
(assert (= temp2623_39 #x0000000000000000))
(assert (= temp2623_38 temp2623_39))
(assert (= temp2623_40 #x0000000000000000))
(assert (= var2628020 temp2623_40))
(assert (= temp2623_41 #x0000000000000001))
(assert (= temp2623_42 #x0000000000000002))
(assert (= var82862
   (ite (= ARGNAME_normalized_NAMEEND #x0000000000000001)
        temp2623_41
        temp2623_42)))
(assert (= temp2623_43 #x0000000000000001))
(assert (= ARGNAME_return_complex_NAMEEND temp2623_43))
(assert (= var82911 var82862))
(assert (= var3740376 var82911))
(assert (= temp2623_44 #x0000000000000000))
(assert (= var3740377 temp2623_44))
(assert (= temp2623_45 #x0000000000000002))
(assert (= var69143 temp2623_45))
(assert (= temp2623_47 #x0000000000000001))
(assert (= temp2623_46 temp2623_47))
(assert (= temp2623_49 #x0000000000000001))
(assert (= temp2623_48 temp2623_49))
(assert (= temp2623_51 #x0000000000000003))
(assert (= temp2623_50 temp2623_51))
(assert (= temp2623_52 #x0000000000000001))
(assert (= var4212949 temp2623_52))
(assert (= var4212950 var69143))
(assert (= temp2623_54 #x0000000000000001))
(assert (= temp2623_53 temp2623_54))
(assert (= temp2623_56 #x0000000000000001))
(assert (= temp2623_55 temp2623_56))
(assert (= temp2623_58 #x0000000000000001))
(assert (= temp2623_57 temp2623_58))
(assert (= temp2623_60 #x0000000000000001))
(assert (= temp2623_59 temp2623_60))
(assert (= temp2623_62 #x0000000000000000))
(assert (= temp2623_61 temp2623_62))
(assert (= temp2623_64 #x0000000000000001))
(assert (= temp2623_63 temp2623_64))
(assert (= var4868391 var69143))
(assert (= temp2623_65 #x0000000000000002))
(assert (= var4983962 temp2623_65))
(assert (= temp2623_67 #x0000000000000001))
(assert (= temp2623_66 temp2623_67))
(assert (= temp2623_69 #x0000000000000001))
(assert (= temp2623_68 temp2623_69))
(assert (= var5453295 var65913))
(assert (= temp2623_71 #x0000000000000001))
(assert (= temp2623_70 temp2623_71))
(assert (= temp2623_73 #x0000000000000001))
(assert (= temp2623_72 temp2623_73))
(assert (= temp2623_75 #x0000000000000001))
(assert (= temp2623_74 temp2623_75))
(assert (= temp2623_77 #x0000000000000001))
(assert (= temp2623_76 temp2623_77))
(assert (= temp2623_79 #x0000000000000000))
(assert (= temp2623_78 temp2623_79))
(assert (= temp2623_81 #x0000000000000001))
(assert (= temp2623_80 temp2623_81))
(assert (= var6375719 var69143))
(assert (= temp2623_82 #x0000000000000000))
(assert (= var83534
   (ite (= ARGNAME_center_NAMEEND temp2623_82)
        #x0000000000000001
        #x0000000000000000)))
(assert (= temp2623_83 #x0000000000000001))
(assert (= var83534 temp2623_83))
(assert (= var83540 var65913))
(assert (= temp2623_84 #x0000000000000000))
(assert (= var6506834
   (ite (= ARGNAME_center_NAMEEND temp2623_84)
        #x0000000000000001
        #x0000000000000000)))
(assert (= temp2623_85 #x0000000000000001))
(assert (= var6506834 temp2623_85))
(assert (= var6753268 var69143))
(assert (= temp2623_86 #x0000000000000001))
(assert (= var6753272 temp2623_86))
(assert (= var7801844 var69143))
(assert (= temp2623_87 #x0000000000000001))
(assert (= var7801848 temp2623_87))
(assert (= temp2623_88 #x0000000000000000))
(assert (= var7801898 temp2623_88))
(assert (= temp2623_89 #x0000000000000000))
(assert (= var7801898 temp2623_89))
(assert (= temp2623_90 #x0000000000000001))
(assert (= var9128231 temp2623_90))
(assert (= var9390375 var65913))
(assert (= temp2623_91 #x0000000000000000))
(assert (= var9637018 temp2623_91))
(model-add temp2623_1 () (_ BitVec 64) #x0000000000000002)
(model-add var81157
           ()
           (_ BitVec 64)
           (bvashr ARGNAME_n_fft_NAMEEND #x0000000000000002))
(model-add temp2623_2 () (_ BitVec 64) #x0000000000000000)
(model-add var1050945 () (_ BitVec 64) #x0000000000000000)
(model-add temp2623_3 () (_ BitVec 64) #xffffffffffffffff)
(model-add var67312 () (_ BitVec 64) #xffffffffffffffff)
(model-add temp2623_4 () (_ BitVec 64) #x0000000000000002)
(model-add var81838
           ()
           (_ BitVec 64)
           (bvsdiv_i ARGNAME_n_fft_NAMEEND #x0000000000000002))
(model-add temp2623_5 () (_ BitVec 64) #x0000000000000001)
(model-add var81839
           ()
           (_ BitVec 64)
           (bvadd #x0000000000000001
                  (bvsdiv_i ARGNAME_n_fft_NAMEEND #x0000000000000002)))
(model-add temp2623_6 () (_ BitVec 64) #x0000000000000001)
(model-add var82185
           ()
           (_ BitVec 64)
           (ite (bvsle #x0000000000000001 ARGNAME_hop_length_NAMEEND)
                #x0000000000000000
                #x0000000000000001))
(model-add var82186
           ()
           (_ BitVec 64)
           (ite (bvsle ARGNAME_hop_length_NAMEEND null)
                #x0000000000000000
                #x0000000000000001))
(model-add temp2623_7 () (_ BitVec 64) #x0000000000000000)
(model-add var82187 () (_ BitVec 64) #x0000000000000000)
(model-del k!0)
(model-add null
           ()
           (_ BitVec 64)
           (ite (or k!0 (= ARGNAME_hop_length_NAMEEND #x8000000000000000))
                ARGNAME_hop_length_NAMEEND
                (bvsub ARGNAME_hop_length_NAMEEND #x0000000000000001)))






